\* Production_120kgs *\
Minimize
Cout_total_des_ingrÈdients: 4.1 Alliage1 + 4.3 Alliage2 + 5.8 Alliage3
 + 6 Alliage4 + 7.6 Alliage5 + 7.5 Alliage6 + 7.3 Alliage7 + 6.9 Alliage8
 + 7.3 Alliage9
Subject To
etain: 0.8 Alliage1 + 0.6 Alliage2 + 0.1 Alliage3 + 0.1 Alliage4
 + 0.4 Alliage5 + 0.3 Alliage6 + 0.5 Alliage7 + 0.1 Alliage8 + 0.5 Alliage9
 = 48
plomb: 0.1 Alliage1 + 0.1 Alliage2 + 0.4 Alliage3 + 0.6 Alliage4
 + 0.3 Alliage5 + 0.3 Alliage6 + 0.3 Alliage7 + 0.5 Alliage8 + 0.2 Alliage9
 = 36
total: Alliage1 + Alliage2 + Alliage3 + Alliage4 + Alliage5 + Alliage6
 + Alliage7 + Alliage8 + Alliage9 = 120
zinc: 0.1 Alliage1 + 0.3 Alliage2 + 0.5 Alliage3 + 0.3 Alliage4 + 0.3 Alliage5
 + 0.4 Alliage6 + 0.2 Alliage7 + 0.4 Alliage8 + 0.3 Alliage9 = 36
End
